
******************************************************************************
This program contains Ipopt, a library for large-scale nonlinear optimization.
 Ipopt is released as open source code under the Eclipse Public License (EPL).
         For more information visit http://projects.coin-or.org/Ipopt
******************************************************************************

This is Ipopt version 3.12.6, running with linear solver ma57.

Number of nonzeros in equality constraint Jacobian...:        6
Number of nonzeros in inequality constraint Jacobian.:        0
Number of nonzeros in Lagrangian Hessian.............:        6

Total number of variables............................:        3
                     variables with only lower bounds:        3
                variables with lower and upper bounds:        0
                     variables with only upper bounds:        0
Total number of equality constraints.................:        2
Total number of inequality constraints...............:        0
        inequality constraints with only lower bounds:        0
   inequality constraints with lower and upper bounds:        0
        inequality constraints with only upper bounds:        0

iter    objective    inf_pr   inf_du lg(mu)  ||d||  lg(rg) alpha_du alpha_pr  ls
   0  9.7600000e+02 1.30e+01 8.14e-01  -1.0 0.00e+00    -  0.00e+00 0.00e+00   0
   1  9.5643065e+02 4.14e+00 5.98e-01  -1.0 4.26e+00    -  3.22e-01 5.00e-01f  1
   2  9.6095015e+02 6.99e-01 3.76e+00  -1.0 7.64e-01    -  2.55e-01 1.00e+00h  1
   3  9.6163850e+02 6.68e-02 1.27e-01  -1.0 2.14e-01    -  1.00e+00 1.00e+00h  1
   4  9.6170650e+02 7.10e-03 1.53e-02  -2.5 6.35e-02    -  9.76e-01 1.00e+00h  1
   5  9.6171515e+02 1.80e-05 9.81e-06  -3.8 3.45e-03    -  1.00e+00 1.00e+00h  1
   6  9.6171517e+02 1.19e-09 2.33e-09  -5.7 2.55e-05    -  1.00e+00 1.00e+00h  1
   7  9.6171517e+02 9.59e-14 2.75e-13  -8.6 2.19e-07    -  1.00e+00 1.00e+00h  1

Number of Iterations....: 7

                                   (scaled)                 (unscaled)
Objective...............:   9.6171517213005200e+02    9.6171517213005200e+02
Dual infeasibility......:   2.7474191439957624e-13    2.7474191439957624e-13
Constraint violation....:   9.5923269327613525e-14    9.5923269327613525e-14
Complementarity.........:   2.5060508128869320e-09    2.5060508128869320e-09
Overall NLP error.......:   2.5060508128869320e-09    2.5060508128869320e-09


Number of objective function evaluations             = 8
Number of objective gradient evaluations             = 8
Number of equality constraint evaluations            = 8
Number of inequality constraint evaluations          = 0
Number of equality constraint Jacobian evaluations   = 8
Number of inequality constraint Jacobian evaluations = 0
Number of Lagrangian Hessian evaluations             = 7
Total CPU secs in IPOPT (w/o function evaluations)   =      0.000
Total CPU secs in NLP function evaluations           =      0.000

EXIT: Optimal Solution Found.

************************ CUTEst statistics ************************


 Package used            :  IPOPT
 Problem                 :  HS63      
 # variables             =               3
 # constraints           =               2
 # objective functions   =        0.1700000E+02
 # objective gradients   =        0.9000000E+01
 # objective Hessians    =        0.8000000E+01
 # Hessian-vector prdct  =        0.0000000E+00
 # constraints functions =        0.1800000E+02
 # constraints gradients =        0.1000000E+02
 # constraints Hessians  =        0.8000000E+01
 Exit code               =               0
 Final f                 =   0.9617152E+03
 Set up time             =            0.00 seconds
 Solve time              =            0.01 seconds


******************************************************************

System Time =       0.0030000000 s.
